num_plantas = 2;
num_dias = 3;
num_clientes = 2;

coste_produccion = [5, 7];
capacidad_maxima = [100, 100];
demanda_diaria = array2d(1..2, 1..3, [
   60, 80, 60,    
   70, 90, 70     
]);

porcentaje_minimo = 50;
pago_por_mw = [15,10];
porcentaje_regimen_alto = [60,80]; 
max_dias_regimen_alto = [1,2];     
